Rodando pra 1h

Optimize a model with 360129 rows, 539210 columns and 19746269 nonzeros
Coefficient statistics:
  Matrix range    [1e+00, 1e+04]
  Objective range [2e-01, 2e-01]
  Bounds range    [1e+00, 1e+04]
  RHS range       [1e+00, 1e+04]
Presolve removed 1 rows and 1 columns (presolve time = 5s) ...
Presolve removed 2 rows and 2 columns (presolve time = 20s) ...
Presolve removed 4 rows and 4 columns (presolve time = 28s) ...
Presolve removed 4 rows and 4 columns (presolve time = 36s) ...
Presolve removed 4 rows and 4 columns (presolve time = 40s) ...
Presolve removed 4 rows and 4 columns (presolve time = 45s) ...
Presolve removed 4 rows and 4 columns (presolve time = 54s) ...
Presolve removed 4 rows and 4 columns (presolve time = 58s) ...
Presolve removed 4 rows and 4 columns (presolve time = 62s) ...
Presolve removed 4 rows and 4 columns (presolve time = 66s) ...
Presolve removed 4 rows and 4 columns (presolve time = 74s) ...
Presolve removed 4 rows and 4 columns (presolve time = 78s) ...
Presolve removed 4 rows and 4 columns (presolve time = 82s) ...
Presolve removed 4 rows and 4 columns (presolve time = 86s) ...
Presolve removed 4 rows and 4 columns (presolve time = 93s) ...
Presolve removed 4 rows and 4 columns (presolve time = 97s) ...
Presolve removed 4 rows and 4 columns (presolve time = 100s) ...
Presolve removed 4 rows and 4 columns (presolve time = 108s) ...
Presolve removed 4 rows and 4 columns (presolve time = 111s) ...
Presolve removed 4 rows and 4 columns (presolve time = 118s) ...
Presolve removed 4 rows and 4 columns (presolve time = 122s) ...
Presolve removed 4 rows and 4 columns (presolve time = 126s) ...
Presolve removed 4 rows and 4 columns (presolve time = 133s) ...
Presolve removed 4 rows and 4 columns (presolve time = 136s) ...
Presolve removed 4 rows and 4 columns (presolve time = 143s) ...
Presolve removed 4 rows and 4 columns (presolve time = 147s) ...
Presolve removed 4 rows and 4 columns (presolve time = 151s) ...
Presolve removed 4 rows and 4 columns (presolve time = 158s) ...
Presolve removed 4 rows and 4 columns (presolve time = 162s) ...
Presolve removed 4 rows and 4 columns (presolve time = 165s) ...
Presolve removed 4 rows and 4 columns (presolve time = 172s) ...
Presolve removed 4 rows and 4 columns (presolve time = 176s) ...
Presolve removed 4 rows and 4 columns (presolve time = 183s) ...
Presolve removed 4 rows and 4 columns (presolve time = 186s) ...
Presolve removed 4 rows and 4 columns (presolve time = 193s) ...
Presolve removed 4 rows and 4 columns (presolve time = 197s) ...
Presolve removed 4 rows and 4 columns (presolve time = 210s) ...
Presolve removed 4 rows and 4 columns (presolve time = 215s) ...
Presolve removed 4 rows and 4 columns (presolve time = 239s) ...
Presolve removed 4 rows and 4 columns
Presolve time: 239.15s
Presolved: 360125 rows, 539206 columns, 19746241 nonzeros
Variable types: 359400 continuous, 179806 integer (179800 binary)
Optimize a model with 360125 rows, 539206 columns and 19746241 nonzeros
Coefficient statistics:
  Matrix range    [1e+00, 1e+04]
  Objective range [2e-01, 2e-01]
  Bounds range    [1e+00, 1e+04]
  RHS range       [1e+00, 2e+04]
Presolve removed 0 rows and 0 columns (presolve time = 8s) ...
Presolve removed 0 rows and 0 columns (presolve time = 10s) ...
Presolved: 360125 rows, 539206 columns, 19746241 nonzeros


Root simplex log...

Iteration    Objective       Primal Inf.    Dual Inf.      Time
       0    0.0000000e+00   1.814585e+03   0.000000e+00    288s
    1262    0.0000000e+00   0.000000e+00   0.000000e+00    290s

Root relaxation: objective 0.000000e+00, 1262 iterations, 14.49 seconds
Total elapsed time = 290.12s

    Nodes    |    Current Node    |     Objective Bounds      |     Work
 Expl Unexpl |  Obj  Depth IntInf | Incumbent    BestBd   Gap | It/Node Time

     0     0    0.00000    0  626          -    0.00000      -     - 3608s

Explored 0 nodes (254097 simplex iterations) in 3608.54 seconds
Thread count was 1 (of 4 available processors)

Time limit reached
Best objective -, best bound 0.000000000000e+00, gap -
Tempo: 3593.94 segundos

Error code = 10004
Var::get
